####################################################################### 
# 
# This file contains crystal structure data downloaded from the 
# Cambridge Structural Database (CSD) hosted by the Cambridge 
# Crystallographic Data Centre (CCDC).
# 
# Full information about CCDC data access policies and citation 
# guidelines are available at http://www.ccdc.cam.ac.uk/access/V1 
# 
# Audit and citation data items may have been added by the CCDC. 
# Please retain this information to preserve the provenance of 
# this file and to allow appropriate attribution of the data. 
# 
#######################################################################

data_IMAZOL04
#This CIF has been generated from an entry in the Cambridge Structural Database
_database_code_depnum_ccdc_archive 'CCDC 1180144'
_database_code_CSD               IMAZOL04
loop_
_citation_id
_citation_doi
_citation_year
1 10.1107/S0567740877008954 1977
_audit_creation_method           'Created from the CSD'
_audit_update_record             
;
2018-02-19 downloaded from the CCDC.
;
_database_code_NBS               514546
_chemical_formula_moiety         'C3 H4 N2'
_chemical_name_systematic        Imidazole
_chemical_absolute_configuration unk
_diffrn_ambient_temperature      123
_exptl_crystal_density_diffrn    1.297
#These two values have been output from a single CSD field.
_refine_ls_R_factor_gt           0.074
_refine_ls_wR_factor_gt          0.074
_diffrn_radiation_probe          neutron
_diffrn_source                   'neutron radiation'
_symmetry_cell_setting           monoclinic
_symmetry_space_group_name_H-M   'P 21/c'
_symmetry_Int_Tables_number      14
_space_group_name_Hall           '-P 2ybc'
loop_
_symmetry_equiv_pos_site_id
_symmetry_equiv_pos_as_xyz
1 x,y,z
2 -x,1/2+y,1/2-z
3 -x,-y,-z
4 x,1/2-y,1/2+z
_cell_length_a                   7.582(2)
_cell_length_b                   5.371(2)
_cell_length_c                   9.790(3)
_cell_angle_alpha                90
_cell_angle_beta                 118.98(2)
_cell_angle_gamma                90
_cell_volume                     348.759
_cell_formula_units_Z            4
loop_
_atom_site_label
_atom_site_type_symbol
_atom_site_fract_x
_atom_site_fract_y
_atom_site_fract_z
N1 N 0.21890 0.33280 0.08740
H1 H 0.20460 0.26590 -0.01890
C1 C 0.15780 0.21960 0.17950
H2 H 0.07850 0.04510 0.15140
N2 N 0.20850 0.34680 0.30890
C2 C 0.30830 0.55150 0.29840
H3 H 0.37130 0.68810 0.38980
C3 C 0.31640 0.54450 0.16280
H4 H 0.38710 0.67100 0.11830

#END
